c A SAT instance generated from a 3-CNF formula that had 60 clauses and 10 variables
p cnf 10 60
6 -5 -3 0
9 7 -5 0
-5 -9 7 0
10 7 -8 0
-3 -9 4 0
-6 7 -8 0
-5 -7 9 0
-1 2 -7 0
4 2 -6 0
5 -2 7 0
6 -10 9 0
-6 -8 9 0
-8 4 -5 0
-10 -6 4 0
4 -7 6 0
10 6 -5 0
1 2 -10 0
-10 3 -6 0
9 7 -1 0
5 -10 -3 0
-8 -10 -2 0
-2 10 -3 0
-6 -1 9 0
5 4 10 0
5 -9 1 0
1 -9 -4 0
-2 3 -8 0
1 -2 9 0
8 5 1 0
-1 -10 8 0
9 -6 5 0
2 -4 -6 0
8 -2 6 0
4 10 -9 0
7 8 -3 0
-9 -3 -1 0
3 7 2 0
-2 9 3 0
4 3 10 0
-8 4 2 0
-5 -3 4 0
8 -4 9 0
-6 9 7 0
-4 -8 -5 0
8 -7 -1 0
-1 -3 7 0
9 7 2 0
-10 -1 -8 0
2 -9 5 0
-7 8 2 0
8 -10 -3 0
8 -10 -3 0
2 -6 -9 0
3 -4 -5 0
-10 7 6 0
-1 5 3 0
-10 2 -5 0
-4 -10 -8 0
2 -5 10 0
-5 3 10 0
%
0

67 6 26 27 75 39 36 50 40 35
